(set-info :smt-lib-version 2.6)
(set-info :category "crafted")
(set-logic QF_FF)
(define-sort FF0 () (_ FiniteField 52435875175126190479447740508185965837690552500527637822603658699938581184513))
(declare-fun j () Bool)
(declare-fun c () Bool)
(declare-fun l () Bool)
(declare-fun k () Bool)
(declare-fun i () Bool)
(declare-fun h () Bool)
(declare-fun g () Bool)
(declare-fun f () Bool)
(declare-fun e () Bool)
(declare-fun d () Bool)
(declare-fun b () Bool)
(declare-fun a () Bool)
(declare-fun out () FF0)
(declare-fun _23 () FF0)
(declare-fun _12 () FF0)
(declare-fun _22 () FF0)
(declare-fun _11 () FF0)
(declare-fun _21 () FF0)
(declare-fun _10 () FF0)
(declare-fun _20 () FF0)
(declare-fun _8 () FF0)
(declare-fun _19 () FF0)
(declare-fun _7 () FF0)
(declare-fun _18 () FF0)
(declare-fun _6 () FF0)
(declare-fun _17 () FF0)
(declare-fun _5 () FF0)
(declare-fun _16 () FF0)
(declare-fun _4 () FF0)
(declare-fun _15 () FF0)
(declare-fun _3 () FF0)
(declare-fun _14 () FF0)
(declare-fun _1 () FF0)
(declare-fun _0 () FF0)
(declare-fun _9 () FF0)
(declare-fun _2 () FF0)
(assert 
  (let ((let0 j))
  (let ((let1 c))
  (let ((let2 (= let1 let0)))
  (let ((let3 l))
  (let ((let4 k))
  (let ((let5 i))
  (let ((let6 h))
  (let ((let7 g))
  (let ((let8 f))
  (let ((let9 e))
  (let ((let10 d))
  (let ((let11 b))
  (let ((let12 a))
  (let ((let13 (and let12 let11 let10 let9 let8 let7 let6 let5 let4 let3 let2)))
  (let ((let14 out))
  (let ((let15 (as ff1 FF0)))
  (let ((let16 (= let15 let14)))
  (let ((let17 (= let16 let13)))
  (let ((let18 (as ff0 FF0)))
  (let ((let19 (= let18 let14)))
  (let ((let20 (or let16 let19)))
  (let ((let21 (and let20 let17)))
  (let ((let22 _23))
  (let ((let23 (as ff52435875175126190479447740508185965837690552500527637822603658699938581184512 FF0)))
  (let ((let24 _12))
  (let ((let25 (ff.mul let24 let23)))
  (let ((let26 (ff.add let25 let15)))
  (let ((let27 _22))
  (let ((let28 (ff.mul let27 let26)))
  (let ((let29 (= let28 let22)))
  (let ((let30 _11))
  (let ((let31 _21))
  (let ((let32 (ff.mul let31 let30)))
  (let ((let33 (= let32 let27)))
  (let ((let34 _10))
  (let ((let35 _20))
  (let ((let36 (ff.mul let35 let34)))
  (let ((let37 (= let36 let31)))
  (let ((let38 _8))
  (let ((let39 _19))
  (let ((let40 (ff.mul let39 let38)))
  (let ((let41 (= let40 let35)))
  (let ((let42 _7))
  (let ((let43 _18))
  (let ((let44 (ff.mul let43 let42)))
  (let ((let45 (= let44 let39)))
  (let ((let46 _6))
  (let ((let47 _17))
  (let ((let48 (ff.mul let47 let46)))
  (let ((let49 (= let48 let43)))
  (let ((let50 _5))
  (let ((let51 _16))
  (let ((let52 (ff.mul let51 let50)))
  (let ((let53 (= let52 let47)))
  (let ((let54 _4))
  (let ((let55 _15))
  (let ((let56 (ff.mul let55 let54)))
  (let ((let57 (= let56 let51)))
  (let ((let58 _3))
  (let ((let59 _14))
  (let ((let60 (ff.mul let59 let58)))
  (let ((let61 (= let60 let55)))
  (let ((let62 _1))
  (let ((let63 _0))
  (let ((let64 (ff.mul let63 let62)))
  (let ((let65 (= let64 let59)))
  (let ((let66 _9))
  (let ((let67 (ff.mul let66 let23)))
  (let ((let68 _2))
  (let ((let69 (ff.add let68 let67)))
  (let ((let70 (ff.mul let69 let69)))
  (let ((let71 (= let70 let24)))
  (let ((let72 (ff.mul let30 let30)))
  (let ((let73 (= let72 let30)))
  (let ((let74 (ff.mul let34 let34)))
  (let ((let75 (= let74 let34)))
  (let ((let76 (ff.mul let66 let66)))
  (let ((let77 (= let76 let66)))
  (let ((let78 (ff.mul let38 let38)))
  (let ((let79 (= let78 let38)))
  (let ((let80 (ff.mul let42 let42)))
  (let ((let81 (= let80 let42)))
  (let ((let82 (ff.mul let46 let46)))
  (let ((let83 (= let82 let46)))
  (let ((let84 (ff.mul let50 let50)))
  (let ((let85 (= let84 let50)))
  (let ((let86 (ff.mul let54 let54)))
  (let ((let87 (= let86 let54)))
  (let ((let88 (ff.mul let58 let58)))
  (let ((let89 (= let88 let58)))
  (let ((let90 (ff.mul let68 let68)))
  (let ((let91 (= let90 let68)))
  (let ((let92 (ff.mul let62 let62)))
  (let ((let93 (= let92 let62)))
  (let ((let94 (ff.mul let63 let63)))
  (let ((let95 (= let94 let63)))
  (let ((let96 (and let95 let93 let91 let89 let87 let85 let83 let81 let79 let77 let75 let73 let71 let65 let61 let57 let53 let49 let45 let41 let37 let33 let29)))
  (let ((let97 (ite let10 let15 let18)))
  (let ((let98 (= let58 let97)))
  (let ((let99 (ite let6 let15 let18)))
  (let ((let100 (= let42 let99)))
  (let ((let101 (ite let7 let15 let18)))
  (let ((let102 (= let46 let101)))
  (let ((let103 (ite let3 let15 let18)))
  (let ((let104 (= let30 let103)))
  (let ((let105 (ite let9 let15 let18)))
  (let ((let106 (= let54 let105)))
  (let ((let107 (ite let1 let15 let18)))
  (let ((let108 (= let68 let107)))
  (let ((let109 (ite let11 let15 let18)))
  (let ((let110 (= let62 let109)))
  (let ((let111 (ite let0 let15 let18)))
  (let ((let112 (= let66 let111)))
  (let ((let113 (ite let5 let15 let18)))
  (let ((let114 (= let38 let113)))
  (let ((let115 (ite let4 let15 let18)))
  (let ((let116 (= let34 let115)))
  (let ((let117 (ite let8 let15 let18)))
  (let ((let118 (= let50 let117)))
  (let ((let119 (ite let12 let15 let18)))
  (let ((let120 (= let63 let119)))
  (let ((let121 (and let120 let118 let116 let114 let112 let110 let108 let106 let104 let102 let100 let98)))
  (let ((let122 (and let121 let96)))
  (let ((let123 (=> let122 let21)))
  (let ((let124 (not let123)))
  let124
)))))))))))))))))))))))))))))))))))))))))))))))))))))))))))))))))))))))))))))))))))))))))))))))))))))))))))))))))))))))))))))
)
(check-sat)
